c Generated map
c Size: 9 * 9, weights in range: 1 to 10, walls: True, with ratio 0.05
c dim 1 of 7
c
p sp 81 129
c graph contains 81 nodes and 129 arcs
c
a 1 10 7
a 10 1 7
a 1 2 3
a 2 1 3
a 2 11 8
a 11 2 8
a 2 3 10
a 3 2 10
a 3 12 1
a 12 3 1
a 3 4 10
a 4 3 10
a 4 13 6
a 13 4 6
a 4 5 9
a 5 4 9
a 5 14 8
a 14 5 8
a 5 6 8
a 6 5 8
a 6 15 5
a 15 6 5
a 6 7 5
a 7 6 5
a 7 16 7
a 16 7 7
a 7 8 8
a 8 7 8
a 8 17 9
a 17 8 9
a 8 9 10
a 9 8 10
a 9 18 8
a 18 9 8
a 10 19 6
a 19 10 6
a 10 11 6
a 11 10 6
a 11 20 10
a 20 11 10
a 11 12 7
a 12 11 7
a 12 21 1
a 21 12 1
a 12 13 1
a 13 12 1
a 13 22 1
a 22 13 1
a 13 14 10
a 14 13 10
a 14 23 1
a 23 14 1
a 14 15 4
a 15 14 4
a 15 24 7
a 24 15 7
a 15 16 6
a 16 15 6
a 16 25 6
a 25 16 6
a 16 17 2
a 17 16 2
a 17 26 5
a 26 17 5
a 17 18 8
a 18 17 8
a 18 27 6
a 27 18 6
a 19 28 7
a 28 19 7
a 19 20 4
a 20 19 4
a 20 29 1
a 29 20 1
a 20 21 4
a 21 20 4
a 21 30 4
a 30 21 4
a 21 22 5
a 22 21 5
a 22 31 4
a 31 22 4
a 22 23 7
a 23 22 7
a 23 32 1
a 32 23 1
a 23 24 6
a 24 23 6
a 24 25 4
a 25 24 4
a 25 34 1
a 34 25 1
a 25 26 8
a 26 25 8
a 26 35 7
a 35 26 7
a 26 27 3
a 27 26 3
a 27 36 4
a 36 27 4
a 28 37 6
a 37 28 6
a 28 29 5
a 29 28 5
a 29 38 6
a 38 29 6
a 29 30 3
a 30 29 3
a 30 31 7
a 31 30 7
a 31 40 5
a 40 31 5
a 31 32 7
a 32 31 7
a 32 41 4
a 41 32 4
a 34 43 2
a 43 34 2
a 34 35 9
a 35 34 9
a 35 44 7
a 44 35 7
a 35 36 6
a 36 35 6
a 37 46 2
a 46 37 2
a 37 38 2
a 38 37 2
a 38 47 3
a 47 38 3
a 40 49 10
a 49 40 10
a 40 41 6
a 41 40 6
a 41 50 6
a 50 41 6
a 41 42 5
a 42 41 5
a 42 51 7
a 51 42 7
a 42 43 3
a 43 42 3
a 43 52 10
a 52 43 10
a 43 44 10
a 44 43 10
a 44 53 2
a 53 44 2
a 46 55 1
a 55 46 1
a 46 47 10
a 47 46 10
a 47 56 6
a 56 47 6
a 47 48 7
a 48 47 7
a 48 57 2
a 57 48 2
a 48 49 8
a 49 48 8
a 49 58 3
a 58 49 3
a 49 50 7
a 50 49 7
a 50 51 4
a 51 50 4
a 51 60 2
a 60 51 2
a 51 52 3
a 52 51 3
a 52 61 2
a 61 52 2
a 52 53 4
a 53 52 4
a 53 62 4
a 62 53 4
a 53 54 8
a 54 53 8
a 54 63 8
a 63 54 8
a 55 64 9
a 64 55 9
a 55 56 3
a 56 55 3
a 56 65 3
a 65 56 3
a 56 57 7
a 57 56 7
a 57 66 9
a 66 57 9
a 57 58 9
a 58 57 9
a 58 67 1
a 67 58 1
a 60 69 7
a 69 60 7
a 60 61 9
a 61 60 9
a 61 70 6
a 70 61 6
a 61 62 3
a 62 61 3
a 62 71 7
a 71 62 7
a 62 63 10
a 63 62 10
a 63 72 9
a 72 63 9
a 64 73 6
a 73 64 6
a 64 65 5
a 65 64 5
a 65 74 7
a 74 65 7
a 65 66 3
a 66 65 3
a 66 75 1
a 75 66 1
a 66 67 7
a 67 66 7
a 67 76 1
a 76 67 1
a 67 68 2
a 68 67 2
a 68 77 2
a 77 68 2
a 68 69 4
a 69 68 4
a 69 78 4
a 78 69 4
a 69 70 3
a 70 69 3
a 70 79 1
a 79 70 1
a 70 71 1
a 71 70 1
a 71 80 1
a 80 71 1
a 71 72 3
a 72 71 3
a 72 81 10
a 81 72 10
a 73 74 7
a 74 73 7
a 74 75 5
a 75 74 5
a 75 76 1
a 76 75 1
a 76 77 9
a 77 76 9
a 77 78 10
a 78 77 10
a 78 79 8
a 79 78 8
a 79 80 3
a 80 79 3
a 80 81 2
a 81 80 2
